c description: Random 3-CNF over 20 variables and 85 clauses
c generator: CNFgen (0.9.2)
c copyright: (C) 2012-2022 Massimo Lauria <massimo.lauria@uniroma1.it>
c url: https://massimolauria.net/cnfgen
c command line: cnfgen --output CNF_4.28/20_bit_85_307.cnf randkcnf 3 20 85
c
p cnf 20 85
-12 -13 -15 0
-4 12 -14 0
-11 -13 18 0
6 14 -16 0
5 13 -16 0
-1 -7 10 0
6 -7 8 0
1 -12 15 0
12 -14 -18 0
-2 -11 18 0
-8 13 19 0
-14 -17 -19 0
-3 -4 13 0
-12 -16 -17 0
-2 -5 -6 0
6 11 14 0
-5 -7 -11 0
-4 -12 18 0
2 -7 13 0
3 -9 13 0
3 -6 20 0
10 -13 -14 0
1 -10 -18 0
2 8 17 0
-4 -7 8 0
-13 16 -19 0
-2 -8 -20 0
5 -8 15 0
5 12 -15 0
-5 10 16 0
4 15 -17 0
-12 -17 19 0
3 -14 17 0
-2 11 -18 0
-7 -13 19 0
-2 7 20 0
-7 -13 -16 0
4 9 14 0
6 9 11 0
2 5 -14 0
12 -13 18 0
4 10 12 0
-17 -19 20 0
12 14 -17 0
5 6 9 0
-7 -9 -15 0
2 6 19 0
12 -16 -20 0
-6 -14 -18 0
-6 7 -12 0
4 13 15 0
-3 6 12 0
-12 14 16 0
6 -9 -10 0
-4 -9 -11 0
-2 3 -13 0
3 6 14 0
-2 -5 15 0
5 6 20 0
-5 19 -20 0
11 15 17 0
7 18 20 0
5 9 -14 0
1 4 -19 0
3 -14 18 0
5 7 12 0
1 -15 -17 0
-2 -10 -19 0
4 13 -16 0
-4 10 -19 0
13 -18 19 0
-9 13 20 0
9 13 -20 0
3 -7 20 0
-9 17 19 0
6 8 10 0
-2 13 14 0
4 13 17 0
-8 -10 19 0
-5 16 -18 0
-1 8 -13 0
-10 -18 19 0
3 -10 -16 0
5 -9 -10 0
-5 -7 -15 0
